<?xml version="1.0" encoding="UTF-8"?><osil xmlns="os.optimizationservices.org"   xmlns:xsi="http://www.w3.org/2001/XMLSchema-instance" xsi:schemaLocation="os.optimizationservices.org http://www.optimizationservices.org/schemas/2.0/OSiL.xsd" ><instanceHeader><name>gastrans</name></instanceHeader><instanceData><variables numberOfVariables="106"><var name="x1" lb="-INF"/><var name="x2" lb="-INF"/><var name="x3" lb="-INF"/><var name="x4" lb="-INF"/><var name="x5" lb="-INF"/><var name="x6" lb="-INF"/><var name="x7" lb="-INF"/><var name="x8" lb="-INF"/><var name="x9" lb="-INF"/><var name="x10"/><var name="x11"/><var name="x12" lb="-INF"/><var name="x13" lb="-INF"/><var name="x14" lb="-INF"/><var name="x15" lb="-INF"/><var name="x16" lb="-INF"/><var name="x17" lb="-INF"/><var name="x18" lb="-INF"/><var name="x19" lb="-INF"/><var name="x20" lb="-INF"/><var name="x21" lb="-INF"/><var name="x22"/><var name="x23" lb="-INF"/><var name="x24" lb="-INF"/><var name="x25" lb="-INF"/><var name="x26" lb="-INF"/><var name="x27" lb="-INF"/><var name="x28" lb="-INF"/><var name="x29" lb="-INF"/><var name="x30" lb="-INF"/><var name="x31" lb="-INF"/><var name="x32" lb="-INF"/><var name="x33" lb="-INF"/><var name="x34" lb="-INF"/><var name="x35" lb="-INF"/><var name="x36" lb="-INF"/><var name="x37" lb="-INF"/><var name="x38" lb="-INF"/><var name="x39" lb="-INF"/><var name="x40" lb="-INF"/><var name="x41" lb="-INF"/><var name="x42" lb="-INF"/><var name="x43" lb="-INF"/><var name="x44" lb="-INF"/><var name="x45" lb="-INF"/><var name="b46" type="B" ub="1"/><var name="b47" type="B" ub="1"/><var name="b48" type="B" ub="1"/><var name="b49" type="B" ub="1"/><var name="b50" type="B" ub="1"/><var name="b51" type="B" ub="1"/><var name="b52" type="B" ub="1"/><var name="b53" type="B" ub="1"/><var name="b54" type="B" ub="1"/><var name="b55" type="B" ub="1"/><var name="b56" type="B" ub="1"/><var name="b57" type="B" ub="1"/><var name="b58" type="B" ub="1"/><var name="b59" type="B" ub="1"/><var name="b60" type="B" ub="1"/><var name="b61" type="B" ub="1"/><var name="b62" type="B" ub="1"/><var name="b63" type="B" ub="1"/><var name="b64" type="B" ub="1"/><var name="b65" type="B" ub="1"/><var name="b66" type="B" ub="1"/><var name="x67" ub="1.2"/><var name="x68" lb="-INF" ub="-4.034"/><var name="x69" lb="-INF" ub="-.222"/><var name="x70" ub="0"/><var name="x71" lb="-INF" ub="-15.616"/><var name="x72" lb="-INF" ub="-3.918"/><var name="x73" ub="8.4"/><var name="x74" lb="-INF" ub="-5.256"/><var name="x75" lb="-INF" ub="-6.385"/><var name="x76" ub="4.8"/><var name="x77" lb="-INF" ub="-6.848"/><var name="x78" lb="-INF" ub="-2.12"/><var name="x79" lb="-INF" ub="-1.919"/><var name="x80" ub=".96"/><var name="x81" ub="0"/><var name="x82" lb="20.344" ub="22.012"/><var name="x83" ub="0"/><var name="x84" ub="0"/><var name="x85" lb="8.87" ub="11.594"/><var name="x86" ub="0"/><var name="x87" ub="4382.44"/><var name="x88" lb="900" ub="6.4e3"/><var name="x89" ub="4382.44"/><var name="x90" ub="4382.44"/><var name="x91" lb="2.5e3" ub="4382.44"/><var name="x92" lb="900" ub="6.4e3"/><var name="x93" ub="5929"/><var name="x94" lb="900" ub="6.4e3"/><var name="x95" lb="900" ub="4382.44"/><var name="x96" ub="5929"/><var name="x97" ub="4382.44"/><var name="x98" ub="4382.44"/><var name="x99" lb="625" ub="4382.44"/><var name="x100" ub="4382.44"/><var name="x101" ub="3969"/><var name="x102" lb="2.5e3" ub="4382.44"/><var name="x103" ub="4382.44"/><var name="x104" ub="4382.44"/><var name="x105" ub="5929"/><var name="x106" ub="6.4e3"/></variables><objectives numberOfObjectives="1"><obj maxOrMin="min" weight="1" name="defObj_objvar" numberOfObjCoef="5"><coef idx="72">2.28</coef><coef idx="75">2.28</coef><coef idx="79">1.68</coef><coef idx="81">1.68</coef><coef idx="84">2.28</coef></obj></objectives><constraints numberOfConstraints="149"><con name="e2" lb="0" ub="0"/><con name="e3" lb="0" ub="0"/><con name="e4" lb="0" ub="0"/><con name="e5" lb="0" ub="0"/><con name="e6" lb="0" ub="0"/><con name="e7" lb="0" ub="0"/><con name="e8" lb="0" ub="0"/><con name="e9" lb="0" ub="0"/><con name="e10" lb="0" ub="0"/><con name="e11" lb="0" ub="0"/><con name="e12" lb="0" ub="0"/><con name="e13" lb="0" ub="0"/><con name="e14" lb="0" ub="0"/><con name="e15" lb="0" ub="0"/><con name="e16" lb="0" ub="0"/><con name="e17" lb="0" ub="0"/><con name="e18" lb="0" ub="0"/><con name="e19" lb="0" ub="0"/><con name="e20" lb="0" ub="0"/><con name="e21" lb="0" ub="0"/><con name="e22" lb="0" ub="0"/><con name="e23" lb="0" ub="0"/><con name="e24" lb="0" ub="0"/><con name="e25" lb="0" ub="0"/><con name="e26" lb="0" ub="0"/><con name="e27" lb="0" ub="0"/><con name="e28" lb="0" ub="0"/><con name="e29" lb="0" ub="0"/><con name="e30" lb="0" ub="0"/><con name="e31" lb="0" ub="0"/><con name="e32" lb="0" ub="0"/><con name="e33" lb="0" ub="0"/><con name="e34" lb="0" ub="0"/><con name="e35" lb="0" ub="0"/><con name="e36" lb="0" ub="0"/><con name="e37" lb="0" ub="0"/><con name="e38" lb="0" ub="0"/><con name="e39" lb="0" ub="0"/><con name="e40" lb="0" ub="0"/><con name="e41" lb="0" ub="0"/><con name="e42" lb="0" ub="0"/><con name="e43" lb="0"/><con name="e44" lb="0"/><con name="e45" lb="0"/><con name="e46" lb="-1" ub="-1"/><con name="e47" lb="-1" ub="-1"/><con name="e48" lb="-1" ub="-1"/><con name="e49" lb="-1" ub="-1"/><con name="e50" lb="-1" ub="-1"/><con name="e51" lb="-1" ub="-1"/><con name="e52" lb="-1" ub="-1"/><con name="e53" lb="-1" ub="-1"/><con name="e54" lb="-1" ub="-1"/><con name="e55" lb="-1" ub="-1"/><con name="e56" lb="-1" ub="-1"/><con name="e57" lb="-1" ub="-1"/><con name="e58" lb="-1" ub="-1"/><con name="e59" lb="-1" ub="-1"/><con name="e60" lb="-1" ub="-1"/><con name="e61" lb="-1" ub="-1"/><con name="e62" lb="-1" ub="-1"/><con name="e63" lb="-1" ub="-1"/><con name="e64" lb="-1" ub="-1"/><con name="e65" lb="-1" ub="-1"/><con name="e66" lb="-1" ub="-1"/><con name="e67" lb="-5929"/><con name="e68" lb="-5929"/><con name="e69" lb="-6.4e3"/><con name="e70" lb="-6.4e3"/><con name="e71" lb="-5.5e3"/><con name="e72" lb="-6.4e3"/><con name="e73" lb="-5.5e3"/><con name="e74" lb="-5.5e3"/><con name="e75" lb="-4382.44"/><con name="e76" lb="-4382.44"/><con name="e77" lb="-4382.44"/><con name="e78" lb="-3482.44"/><con name="e79" lb="-3482.44"/><con name="e80" lb="-4382.44"/><con name="e81" lb="-4382.44"/><con name="e82" lb="-4382.44"/><con name="e83" lb="-4382.44"/><con name="e84" lb="-4382.44"/><con name="e85" lb="-4382.44"/><con name="e86" lb="-4382.44"/><con name="e87" lb="-4382.44"/><con name="e88" ub="0"/><con name="e89" ub="0"/><con name="e90" ub="0"/><con name="e91" ub="0"/><con name="e92" ub="0"/><con name="e93" ub="0"/><con name="e94" ub="0"/><con name="e95" ub="0"/><con name="e96" ub="0"/><con name="e97" ub="0"/><con name="e98" ub="0"/><con name="e99" ub="0"/><con name="e100" ub="0"/><con name="e101" ub="0"/><con name="e102" ub="0"/><con name="e103" ub="0"/><con name="e104" ub="0"/><con name="e105" ub="0"/><con name="e106" ub="0"/><con name="e107" ub="0"/><con name="e108" ub="0"/><con name="e109" lb="-230.881425454383"/><con name="e110" lb="-230.881425454383"/><con name="e111" lb="-195.858591670881"/><con name="e112" lb="-195.858591670881"/><con name="e113" lb="-87.2213765084548"/><con name="e114" lb="-25.2192935471771"/><con name="e115" lb="-28.4681669051455"/><con name="e116" lb="-35.1707558553061"/><con name="e117" lb="-53.5309450076729"/><con name="e118" lb="-88.7710296317997"/><con name="e119" lb="-10.7961327691767"/><con name="e120" lb="-70.7782927092091"/><con name="e121" lb="-8.6078966125965"/><con name="e122" lb="-61.2578302162646"/><con name="e123" lb="-62.7705970255575"/><con name="e124" lb="-177.542059263599"/><con name="e125" lb="-125.541194051115"/><con name="e126" lb="-79.3992226757409"/><con name="e127" lb="-14.9491145521834"/><con name="e128" lb="-2.72006561154535"/><con name="e129" lb="-10.9930142912741"/><con name="e130" ub="0"/><con name="e131" ub="0"/><con name="e132" ub="0"/><con name="e133" ub="0"/><con name="e134" ub="0"/><con name="e135" ub="0"/><con name="e136" ub="0"/><con name="e137" ub="0"/><con name="e138" ub="0"/><con name="e139" ub="0"/><con name="e140" ub="0"/><con name="e141" ub="0"/><con name="e142" ub="0"/><con name="e143" ub="0"/><con name="e144" ub="0"/><con name="e145" ub="0"/><con name="e146" ub="0"/><con name="e147" ub="0"/><con name="e148" ub="0"/><con name="e149" ub="0"/><con name="e150" ub="0"/></constraints><linearConstraintCoefficients numberOfValues="368"><start><el mult="4" incr="3">0</el><el>14</el><el>16</el><el>20</el><el>25</el><el>28</el><el>33</el><el mult="3" incr="3">35</el><el>43</el><el mult="4" incr="3">47</el><el>61</el><el>64</el><el mult="46" incr="2">68</el><el mult="42" incr="3">161</el><el mult="42" incr="2">286</el></start><colIdx><el mult="2" incr="1">16</el><el>66</el><el mult="2" incr="1">5</el><el>67</el><el mult="2" incr="1">22</el><el>68</el><el mult="4" incr="1">9</el><el>69</el><el>19</el><el>70</el><el mult="3" incr="1">2</el><el>71</el><el mult="4" incr="1">0</el><el>72</el><el mult="2" incr="1">6</el><el>73</el><el mult="4" incr="1">11</el><el>74</el><el>5</el><el>75</el><el mult="2" incr="1">18</el><el>76</el><el mult="2" incr="1">15</el><el>77</el><el>23</el><el>78</el><el>8</el><el mult="2" incr="1">17</el><el>79</el><el mult="2" incr="1">21</el><el>80</el><el mult="2" incr="1">9</el><el>81</el><el mult="2" incr="1">20</el><el>82</el><el mult="3" incr="1">13</el><el>20</el><el>83</el><el mult="2" incr="1">0</el><el>84</el><el>4</el><el mult="2" incr="1">7</el><el>85</el><el>92</el><el>104</el><el>92</el><el>104</el><el mult="2" incr="1">91</el><el mult="2" incr="1">91</el><el>91</el><el>105</el><el>87</el><el>95</el><el>87</el><el>93</el><el>93</el><el>105</el><el>99</el><el>105</el><el>89</el><el>94</el><el>89</el><el>94</el><el>94</el><el>103</el><el>94</el><el>103</el><el>97</el><el>103</el><el>86</el><el>97</el><el>86</el><el>99</el><el>96</el><el>99</el><el mult="3" incr="6">90</el><el>103</el><el>88</el><el>100</el><el>88</el><el>98</el><el>89</el><el>101</el><el>89</el><el>101</el><el>100</el><el>102</el><el>24</el><el>45</el><el>25</el><el>46</el><el>26</el><el>47</el><el>27</el><el>48</el><el>28</el><el>49</el><el>29</el><el>50</el><el>30</el><el>51</el><el>31</el><el>52</el><el>32</el><el>53</el><el>33</el><el>54</el><el>34</el><el>55</el><el>35</el><el>56</el><el>36</el><el>57</el><el>37</el><el>58</el><el>38</el><el>59</el><el>39</el><el>60</el><el>40</el><el>61</el><el>41</el><el>62</el><el>42</el><el>63</el><el>43</el><el>64</el><el>44</el><el>65</el><el>45</el><el>92</el><el>104</el><el>46</el><el>92</el><el>104</el><el>47</el><el mult="2" incr="1">91</el><el>48</el><el mult="2" incr="1">91</el><el>49</el><el>91</el><el>105</el><el>50</el><el>87</el><el>95</el><el>51</el><el>87</el><el>93</el><el>52</el><el>93</el><el>105</el><el>53</el><el>99</el><el>105</el><el>54</el><el>89</el><el>94</el><el>55</el><el>89</el><el>94</el><el>56</el><el>94</el><el>103</el><el>57</el><el>94</el><el>103</el><el>58</el><el>97</el><el>103</el><el>59</el><el>86</el><el>97</el><el>60</el><el>86</el><el>99</el><el>61</el><el>96</el><el>99</el><el>62</el><el>90</el><el>96</el><el>63</el><el mult="2" incr="1">102</el><el>64</el><el>88</el><el>100</el><el>65</el><el>88</el><el>98</el><el>45</el><el>92</el><el>104</el><el>46</el><el>92</el><el>104</el><el>47</el><el mult="2" incr="1">91</el><el>48</el><el mult="2" incr="1">91</el><el>49</el><el>91</el><el>105</el><el>50</el><el>87</el><el>95</el><el>51</el><el>87</el><el>93</el><el>52</el><el>93</el><el>105</el><el>53</el><el>99</el><el>105</el><el>54</el><el>89</el><el>94</el><el>55</el><el>89</el><el>94</el><el>56</el><el>94</el><el>103</el><el>57</el><el>94</el><el>103</el><el>58</el><el>97</el><el>103</el><el>59</el><el>86</el><el>97</el><el>60</el><el>86</el><el>99</el><el>61</el><el>96</el><el>99</el><el>62</el><el>90</el><el>96</el><el>63</el><el mult="2" incr="1">102</el><el>64</el><el>88</el><el>100</el><el>65</el><el>88</el><el>98</el><el>0</el><el>45</el><el>1</el><el>46</el><el>2</el><el>47</el><el>3</el><el>48</el><el>4</el><el>49</el><el>5</el><el>50</el><el>6</el><el>51</el><el>7</el><el>52</el><el>8</el><el>53</el><el>11</el><el>54</el><el>12</el><el>55</el><el>13</el><el>56</el><el>14</el><el>57</el><el>15</el><el>58</el><el>16</el><el>59</el><el>17</el><el>60</el><el>18</el><el>61</el><el>19</el><el>62</el><el>20</el><el>63</el><el>22</el><el>64</el><el>23</el><el>65</el><el>0</el><el>45</el><el>1</el><el>46</el><el>2</el><el>47</el><el>3</el><el>48</el><el>4</el><el>49</el><el>5</el><el>50</el><el>6</el><el>51</el><el>7</el><el>52</el><el>8</el><el>53</el><el>11</el><el>54</el><el>12</el><el>55</el><el>13</el><el>56</el><el>14</el><el>57</el><el>15</el><el>58</el><el>16</el><el>59</el><el>17</el><el>60</el><el>18</el><el>61</el><el>19</el><el>62</el><el>20</el><el>63</el><el>22</el><el>64</el><el>23</el><el>65</el></colIdx><value><el>-1</el><el>1</el><el mult="2">-1</el><el>1</el><el mult="2">-1</el><el>1</el><el mult="3">-1</el><el mult="2">1</el><el mult="5">-1</el><el>1</el><el mult="3">-1</el><el mult="2">1</el><el mult="2">-1</el><el>1</el><el mult="3">-1</el><el mult="2">1</el><el>-1</el><el>1</el><el mult="2">-1</el><el>1</el><el mult="2">-1</el><el>1</el><el mult="5">-1</el><el>1</el><el mult="2">-1</el><el>1</el><el>-1</el><el mult="2">1</el><el mult="2">-1</el><el>1</el><el mult="3">-1</el><el mult="2">1</el><el>-1</el><el mult="2">1</el><el mult="3">-1</el><el>1</el><el>-1</el><el>8.99076279639865</el><el>-8.99076279639865</el><el>8.99076279639865</el><el>-8.99076279639865</el><el>5.99384186426577</el><el>-5.99384186426577</el><el>5.99384186426577</el><el>-5.99384186426577</el><el>-1.38319427636902</el><el>1.38319427636902</el><el>9.93769948466698e-2</el><el>-9.93769948466698e-2</el><el>-.147352095807131</el><el>.147352095807131</el><el>-.224905830442463</el><el>.224905830442463</el><el>.653873657919902</el><el>-.653873657919902</el><el>-1.79815255927973</el><el>1.79815255927973</el><el>-2.65962529480588e-2</el><el>2.65962529480588e-2</el><el>-1.43852204742378</el><el>1.43852204742378</el><el>-2.1277002358447e-2</el><el>2.1277002358447e-2</el><el>.856263123466538</el><el>-.856263123466538</el><el>.899076279639865</el><el>-.899076279639865</el><el>-7.19261023711892</el><el>7.19261023711892</el><el>3.59630511855946</el><el>-3.59630511855946</el><el>1.43852204742378</el><el>-1.43852204742378</el><el>5.09935163731392e-2</el><el>-5.09935163731392e-2</el><el>1.6882734118691e-3</el><el>-1.6882734118691e-3</el><el>-2.75751323938619e-2</el><el>2.75751323938619e-2</el><el>7.19261023711892</el><el>-7.19261023711892</el><el>.106385011792235</el><el>-.106385011792235</el><el>6.36349209089121e-3</el><el>-6.36349209089121e-3</el><el>1</el><el>-2</el><el>1</el><el>-2</el><el>1</el><el>-2</el><el>1</el><el>-2</el><el>1</el><el>-2</el><el>1</el><el>-2</el><el>1</el><el>-2</el><el>1</el><el>-2</el><el>1</el><el>-2</el><el>1</el><el>-2</el><el>1</el><el>-2</el><el>1</el><el>-2</el><el>1</el><el>-2</el><el>1</el><el>-2</el><el>1</el><el>-2</el><el>1</el><el>-2</el><el>1</el><el>-2</el><el>1</el><el>-2</el><el>1</el><el>-2</el><el>1</el><el>-2</el><el>1</el><el>-2</el><el>-5929</el><el>-1</el><el>1</el><el>-5929</el><el>-1</el><el>1</el><el>-6.4e3</el><el>-1</el><el>1</el><el>-6.4e3</el><el>-1</el><el>1</el><el>-5.5e3</el><el>1</el><el>-1</el><el>-6.4e3</el><el>-1</el><el>1</el><el>-5.5e3</el><el>1</el><el>-1</el><el>-5.5e3</el><el>1</el><el>-1</el><el>-4382.44</el><el>-1</el><el>1</el><el>-4382.44</el><el>1</el><el>-1</el><el>-4382.44</el><el>1</el><el>-1</el><el>-3482.44</el><el>1</el><el>-1</el><el>-3482.44</el><el>1</el><el>-1</el><el>-4382.44</el><el>-1</el><el>1</el><el>-4382.44</el><el>-1</el><el>1</el><el>-4382.44</el><el>1</el><el>-1</el><el>-4382.44</el><el>-1</el><el>1</el><el>-4382.44</el><el>-1</el><el>1</el><el>-4382.44</el><el>-1</el><el>1</el><el>-4382.44</el><el>-1</el><el>1</el><el>-4382.44</el><el>1</el><el>-1</el><el>-5929</el><el>-1</el><el>1</el><el>-5929</el><el>-1</el><el>1</el><el>-5029</el><el>-1</el><el>1</el><el>-5029</el><el>-1</el><el>1</el><el>-6.4e3</el><el>1</el><el>-1</el><el>-5029</el><el>-1</el><el>1</el><el>-5.5e3</el><el>1</el><el>-1</el><el>-6.4e3</el><el>1</el><el>-1</el><el>-6.4e3</el><el>-1</el><el>1</el><el>-3482.44</el><el>1</el><el>-1</el><el>-3482.44</el><el>1</el><el>-1</el><el>-4382.44</el><el>1</el><el>-1</el><el>-4382.44</el><el>1</el><el>-1</el><el>-4382.44</el><el>-1</el><el>1</el><el>-4382.44</el><el>-1</el><el>1</el><el>-4382.44</el><el>1</el><el>-1</el><el>-4382.44</el><el>-1</el><el>1</el><el>-1882.44</el><el>-1</el><el>1</el><el>-4382.44</el><el>-1</el><el>1</el><el>-3969</el><el>-1</el><el>1</el><el>-3757.44</el><el>1</el><el>-1</el><el>1</el><el>-230.881425454383</el><el>1</el><el>-230.881425454383</el><el>1</el><el>-195.858591670881</el><el>1</el><el>-195.858591670881</el><el>1</el><el>-87.2213765084548</el><el>1</el><el>-25.2192935471771</el><el>1</el><el>-28.4681669051455</el><el>1</el><el>-35.1707558553061</el><el>1</el><el>-53.5309450076729</el><el>1</el><el>-88.7710296317997</el><el>1</el><el>-10.7961327691767</el><el>1</el><el>-70.7782927092091</el><el>1</el><el>-8.6078966125965</el><el>1</el><el>-61.2578302162646</el><el>1</el><el>-62.7705970255575</el><el>1</el><el>-177.542059263599</el><el>1</el><el>-125.541194051115</el><el>1</el><el>-79.3992226757409</el><el>1</el><el>-14.9491145521834</el><el>1</el><el>-2.72006561154535</el><el>1</el><el>-10.9930142912741</el><el>1</el><el>-230.881425454383</el><el>1</el><el>-230.881425454383</el><el>1</el><el>-173.61748395652</el><el>1</el><el>-173.61748395652</el><el>1</el><el>-94.0874240733678</el><el>1</el><el>-22.3554670513479</el><el>1</el><el>-28.4681669051455</el><el>1</el><el>-37.939390016601</el><el>1</el><el>-64.6899637554959</el><el>1</el><el>-79.1325369145847</el><el>1</el><el>-9.62392098452798</el><el>1</el><el>-79.3992226757409</el><el>1</el><el>-9.65635470639685</el><el>1</el><el>-61.2578302162646</el><el>1</el><el>-62.7705970255575</el><el>1</el><el>-177.542059263599</el><el>1</el><el>-125.541194051115</el><el>1</el><el>-52.0377886055166</el><el>1</el><el>-14.9491145521834</el><el>1</el><el>-2.58858207745253</el><el>1</el><el>-10.1789933422708</el></value></linearConstraintCoefficients><quadraticCoefficients  numberOfQuadraticTerms="3"><qTerm  idx="41"  idxOne="9"  idxTwo="9"  coef="-1"/><qTerm  idx="42"  idxOne="10"  idxTwo="10"  coef="-1"/><qTerm  idx="43"  idxOne="21"  idxTwo="21"  coef="-1"/></quadraticCoefficients><nonlinearExpressions  numberOfNonlinearExpressions="21"><nl idx="20"><product><variable idx="24"/><square><variable idx="0"/></square></product></nl><nl idx="21"><product><variable idx="25"/><square><variable idx="1"/></square></product></nl><nl idx="22"><product><variable idx="26"/><square><variable idx="2"/></square></product></nl><nl idx="23"><product><variable idx="27"/><square><variable idx="3"/></square></product></nl><nl idx="24"><product><variable idx="28"/><square><variable idx="4"/></square></product></nl><nl idx="25"><product><variable idx="29"/><square><variable idx="5"/></square></product></nl><nl idx="26"><product><variable idx="30"/><square><variable idx="6"/></square></product></nl><nl idx="27"><product><variable idx="31"/><square><variable idx="7"/></square></product></nl><nl idx="28"><product><variable idx="32"/><square><variable idx="8"/></square></product></nl><nl idx="29"><product><variable idx="33"/><square><variable idx="11"/></square></product></nl><nl idx="30"><product><variable idx="34"/><square><variable idx="12"/></square></product></nl><nl idx="31"><product><variable idx="35"/><square><variable idx="13"/></square></product></nl><nl idx="32"><product><variable idx="36"/><square><variable idx="14"/></square></product></nl><nl idx="33"><product><variable idx="37"/><square><variable idx="15"/></square></product></nl><nl idx="34"><product><variable idx="38"/><square><variable idx="16"/></square></product></nl><nl idx="35"><product><variable idx="39"/><square><variable idx="17"/></square></product></nl><nl idx="36"><product><variable idx="40"/><square><variable idx="18"/></square></product></nl><nl idx="37"><product><variable idx="41"/><square><variable idx="19"/></square></product></nl><nl idx="38"><product><variable idx="42"/><square><variable idx="20"/></square></product></nl><nl idx="39"><product><variable idx="43"/><square><variable idx="22"/></square></product></nl><nl idx="40"><product><variable idx="44"/><square><variable idx="23"/></square></product></nl></nonlinearExpressions></instanceData></osil>
